c *********************************
c * Circuit generated by BenCGen
c *
c * RippleCarryAdderSubtractor_21_21_21_OutSunT
c *
c * Ports with 1 gate(s): 2
c * Ports with 2 gate(s): 128
c * Total gates: 130
c *********************************
p cnf 172 452
1 66 0
-1 -66 0
1 -65 0
66 -65 0
-1 -66 65 0
65 67 0
-65 -67 0
22 65 -68 0
-22 65 68 0
22 -65 68 0
-22 -65 -68 0
23 65 -69 0
-23 65 69 0
23 -65 69 0
-23 -65 -69 0
24 65 -70 0
-24 65 70 0
24 -65 70 0
-24 -65 -70 0
25 65 -71 0
-25 65 71 0
25 -65 71 0
-25 -65 -71 0
26 65 -72 0
-26 65 72 0
26 -65 72 0
-26 -65 -72 0
27 65 -73 0
-27 65 73 0
27 -65 73 0
-27 -65 -73 0
28 65 -74 0
-28 65 74 0
28 -65 74 0
-28 -65 -74 0
29 65 -75 0
-29 65 75 0
29 -65 75 0
-29 -65 -75 0
30 65 -76 0
-30 65 76 0
30 -65 76 0
-30 -65 -76 0
31 65 -77 0
-31 65 77 0
31 -65 77 0
-31 -65 -77 0
32 65 -78 0
-32 65 78 0
32 -65 78 0
-32 -65 -78 0
33 65 -79 0
-33 65 79 0
33 -65 79 0
-33 -65 -79 0
34 65 -80 0
-34 65 80 0
34 -65 80 0
-34 -65 -80 0
35 65 -81 0
-35 65 81 0
35 -65 81 0
-35 -65 -81 0
36 65 -82 0
-36 65 82 0
36 -65 82 0
-36 -65 -82 0
37 65 -83 0
-37 65 83 0
37 -65 83 0
-37 -65 -83 0
38 65 -84 0
-38 65 84 0
38 -65 84 0
-38 -65 -84 0
39 65 -85 0
-39 65 85 0
39 -65 85 0
-39 -65 -85 0
40 65 -86 0
-40 65 86 0
40 -65 86 0
-40 -65 -86 0
41 65 -87 0
-41 65 87 0
41 -65 87 0
-41 -65 -87 0
42 65 -88 0
-42 65 88 0
42 -65 88 0
-42 -65 -88 0
1 68 -90 0
-1 68 90 0
1 -68 90 0
-1 -68 -90 0
90 65 -43 0
-90 65 43 0
90 -65 43 0
-90 -65 -43 0
65 -91 0
90 -91 0
-65 -90 91 0
68 -92 0
1 -92 0
-68 -1 92 0
-91 89 0
-92 89 0
91 92 -89 0
2 69 -94 0
-2 69 94 0
2 -69 94 0
-2 -69 -94 0
94 89 -44 0
-94 89 44 0
94 -89 44 0
-94 -89 -44 0
89 -95 0
94 -95 0
-89 -94 95 0
69 -96 0
2 -96 0
-69 -2 96 0
-95 93 0
-96 93 0
95 96 -93 0
3 70 -98 0
-3 70 98 0
3 -70 98 0
-3 -70 -98 0
98 93 -45 0
-98 93 45 0
98 -93 45 0
-98 -93 -45 0
93 -99 0
98 -99 0
-93 -98 99 0
70 -100 0
3 -100 0
-70 -3 100 0
-99 97 0
-100 97 0
99 100 -97 0
4 71 -102 0
-4 71 102 0
4 -71 102 0
-4 -71 -102 0
102 97 -46 0
-102 97 46 0
102 -97 46 0
-102 -97 -46 0
97 -103 0
102 -103 0
-97 -102 103 0
71 -104 0
4 -104 0
-71 -4 104 0
-103 101 0
-104 101 0
103 104 -101 0
5 72 -106 0
-5 72 106 0
5 -72 106 0
-5 -72 -106 0
106 101 -47 0
-106 101 47 0
106 -101 47 0
-106 -101 -47 0
101 -107 0
106 -107 0
-101 -106 107 0
72 -108 0
5 -108 0
-72 -5 108 0
-107 105 0
-108 105 0
107 108 -105 0
6 73 -110 0
-6 73 110 0
6 -73 110 0
-6 -73 -110 0
110 105 -48 0
-110 105 48 0
110 -105 48 0
-110 -105 -48 0
105 -111 0
110 -111 0
-105 -110 111 0
73 -112 0
6 -112 0
-73 -6 112 0
-111 109 0
-112 109 0
111 112 -109 0
7 74 -114 0
-7 74 114 0
7 -74 114 0
-7 -74 -114 0
114 109 -49 0
-114 109 49 0
114 -109 49 0
-114 -109 -49 0
109 -115 0
114 -115 0
-109 -114 115 0
74 -116 0
7 -116 0
-74 -7 116 0
-115 113 0
-116 113 0
115 116 -113 0
8 75 -118 0
-8 75 118 0
8 -75 118 0
-8 -75 -118 0
118 113 -50 0
-118 113 50 0
118 -113 50 0
-118 -113 -50 0
113 -119 0
118 -119 0
-113 -118 119 0
75 -120 0
8 -120 0
-75 -8 120 0
-119 117 0
-120 117 0
119 120 -117 0
9 76 -122 0
-9 76 122 0
9 -76 122 0
-9 -76 -122 0
122 117 -51 0
-122 117 51 0
122 -117 51 0
-122 -117 -51 0
117 -123 0
122 -123 0
-117 -122 123 0
76 -124 0
9 -124 0
-76 -9 124 0
-123 121 0
-124 121 0
123 124 -121 0
10 77 -126 0
-10 77 126 0
10 -77 126 0
-10 -77 -126 0
126 121 -52 0
-126 121 52 0
126 -121 52 0
-126 -121 -52 0
121 -127 0
126 -127 0
-121 -126 127 0
77 -128 0
10 -128 0
-77 -10 128 0
-127 125 0
-128 125 0
127 128 -125 0
11 78 -130 0
-11 78 130 0
11 -78 130 0
-11 -78 -130 0
130 125 -53 0
-130 125 53 0
130 -125 53 0
-130 -125 -53 0
125 -131 0
130 -131 0
-125 -130 131 0
78 -132 0
11 -132 0
-78 -11 132 0
-131 129 0
-132 129 0
131 132 -129 0
12 79 -134 0
-12 79 134 0
12 -79 134 0
-12 -79 -134 0
134 129 -54 0
-134 129 54 0
134 -129 54 0
-134 -129 -54 0
129 -135 0
134 -135 0
-129 -134 135 0
79 -136 0
12 -136 0
-79 -12 136 0
-135 133 0
-136 133 0
135 136 -133 0
13 80 -138 0
-13 80 138 0
13 -80 138 0
-13 -80 -138 0
138 133 -55 0
-138 133 55 0
138 -133 55 0
-138 -133 -55 0
133 -139 0
138 -139 0
-133 -138 139 0
80 -140 0
13 -140 0
-80 -13 140 0
-139 137 0
-140 137 0
139 140 -137 0
14 81 -142 0
-14 81 142 0
14 -81 142 0
-14 -81 -142 0
142 137 -56 0
-142 137 56 0
142 -137 56 0
-142 -137 -56 0
137 -143 0
142 -143 0
-137 -142 143 0
81 -144 0
14 -144 0
-81 -14 144 0
-143 141 0
-144 141 0
143 144 -141 0
15 82 -146 0
-15 82 146 0
15 -82 146 0
-15 -82 -146 0
146 141 -57 0
-146 141 57 0
146 -141 57 0
-146 -141 -57 0
141 -147 0
146 -147 0
-141 -146 147 0
82 -148 0
15 -148 0
-82 -15 148 0
-147 145 0
-148 145 0
147 148 -145 0
16 83 -150 0
-16 83 150 0
16 -83 150 0
-16 -83 -150 0
150 145 -58 0
-150 145 58 0
150 -145 58 0
-150 -145 -58 0
145 -151 0
150 -151 0
-145 -150 151 0
83 -152 0
16 -152 0
-83 -16 152 0
-151 149 0
-152 149 0
151 152 -149 0
17 84 -154 0
-17 84 154 0
17 -84 154 0
-17 -84 -154 0
154 149 -59 0
-154 149 59 0
154 -149 59 0
-154 -149 -59 0
149 -155 0
154 -155 0
-149 -154 155 0
84 -156 0
17 -156 0
-84 -17 156 0
-155 153 0
-156 153 0
155 156 -153 0
18 85 -158 0
-18 85 158 0
18 -85 158 0
-18 -85 -158 0
158 153 -60 0
-158 153 60 0
158 -153 60 0
-158 -153 -60 0
153 -159 0
158 -159 0
-153 -158 159 0
85 -160 0
18 -160 0
-85 -18 160 0
-159 157 0
-160 157 0
159 160 -157 0
19 86 -162 0
-19 86 162 0
19 -86 162 0
-19 -86 -162 0
162 157 -61 0
-162 157 61 0
162 -157 61 0
-162 -157 -61 0
157 -163 0
162 -163 0
-157 -162 163 0
86 -164 0
19 -164 0
-86 -19 164 0
-163 161 0
-164 161 0
163 164 -161 0
20 87 -166 0
-20 87 166 0
20 -87 166 0
-20 -87 -166 0
166 161 -62 0
-166 161 62 0
166 -161 62 0
-166 -161 -62 0
161 -167 0
166 -167 0
-161 -166 167 0
87 -168 0
20 -168 0
-87 -20 168 0
-167 165 0
-168 165 0
167 168 -165 0
21 88 -170 0
-21 88 170 0
21 -88 170 0
-21 -88 -170 0
170 165 -63 0
-170 165 63 0
170 -165 63 0
-170 -165 -63 0
165 -171 0
170 -171 0
-165 -170 171 0
88 -172 0
21 -172 0
-88 -21 172 0
-171 169 0
-172 169 0
171 172 -169 0
169 65 -64 0
-169 65 64 0
169 -65 64 0
-169 -65 -64 0
